c b=2,c=1573
p cnf 15 27
2 -4 0
2 -6 0
2 -9 0
1 2 -13 0
2 -14 0
-2 4 0
-2 6 0
-2 9 0
1 -2 13 0
1 -2 14 0
1 -3 0
1 -5 0
1 -8 0
1 -12 0
1 -15 0
-1 2 13 0
2 -15 0
-1 -2 -13 0
-1 -2 15 0
-1 3 0
-1 5 0
-1 8 0
-1 12 0
-1 -14 0
-7 0
-10 0
-11 0
